c width = 40, time = 2.291517
s td 5 41 49
b 1 4 5 6 7 8 11 12 13 14 15 16 17 18 19 20 21 24 25 26 27 28 29 32 33 34 35 36 37 38 39 42 43 44 45 46 47 48
b 2 2 4 5 6 7 8 9 11 12 13 14 15 18 19 20 21 23 24 25 26 27 28 29 31 32 33 34 35 36 37 38 39 40 42 43 44 45 46 47 48 49
b 3 1 2 4 5 8 9 11 13 14 15 18 19 20 21 23 24 25 27 29 31 32 33 35 36 37 38 39 40 41 42 43 44 45 46 47 48 49
b 4 2 3 4 5 6 7 8 9 11 12 13 15 18 19 20 21 23 25 26 28 29 30 31 32 33 34 35 36 37 39 40 42 44 46 47 48 49
b 5 2 4 6 7 8 9 10 11 12 13 14 15 18 19 20 21 22 23 24 25 26 27 28 29 31 32 34 37 38 39 40 42 43 45 46 48 49
2 3
2 4
2 5
1 2
